12 965
535 8 492 8 398 9 231 10 69 14 902 35
535 8 492 8 398 9 231 10 69 14 902 35
525 7 479 7 299 7 87 9 884 11 701 15 552 22
525 7 482 7 362 7 201 9 13 11 819 18
525 7 479 7 358 7 163 9 10 11 816 18
521 7 441 7 261 7 104 9 962 11 811 18
525 7 477 7 391 7 244 9 79 11 2 15
525 7 482 7 394 7 212 9 29 11 822 15 623 21
525 7 479 7 355 7 106 9 927 13
525 7 479 7 355 7 106 9 927 13
525 7 479 7 355 7 106 9 931 13
525 7 479 7 355 7 106 9 931 13
